20
807304 1490790
365268 691574
71972 150435
635962 1164050
628375 1227890
105248 219877
912959 1934511
102532 199053
258867 514991
778387 1522492
351744 769943
775629 1680173
997576 1839759
264796 523879
438778 800279
549088 1097473
522456 1091605
920079 1921590
775693 1495883
76582 139897
5169647